Version identifier: 22.1.1.0 | 2022-11-28 | 9160aff4d
CPXPARAM_ClockType                               1
CPXPARAM_Read_DataCheck                          1
CPXPARAM_Threads                                 1
CPXPARAM_Simplex_Tolerances_Optimality           1.0000000000000001e-09
CPXPARAM_TimeLimit                               7200
CPXPARAM_MIP_Tolerances_AbsMIPGap                0
CPXPARAM_MIP_Tolerances_MIPGap                   0
CPXPARAM_MIP_Tolerances_Integrality              0
Tried aggregator 2 times.
MIQP Presolve eliminated 900 rows and 24 columns.
MIQP Presolve modified 448 coefficients.
Aggregator did 10 substitutions.
Reduced MIQP has 135998 rows, 27356 columns, and 413175 nonzeros.
Reduced MIQP has 24618 binaries, 2738 generals, 0 SOSs, and 0 indicators.
Reduced MIQP objective Q matrix has 2738 nonzeros.
Presolve time = 2.05 sec. (1099.49 ticks)
Probing time = 0.04 sec. (13.47 ticks)
Tried aggregator 1 time.
MIQP Presolve eliminated 410 rows and 0 columns.
Reduced MIQP has 135588 rows, 27356 columns, and 411945 nonzeros.
Reduced MIQP has 24618 binaries, 2738 generals, 0 SOSs, and 0 indicators.
Reduced MIQP objective Q matrix has 2738 nonzeros.
Presolve time = 1.30 sec. (750.44 ticks)
Classifier predicts products in MIQP should be linearized.
Probing time = 0.04 sec. (13.33 ticks)
Clique table members: 93302.
MIP emphasis: balance optimality and feasibility.
MIP search method: dynamic search.
Parallel mode: none, using 1 thread.
Root relaxation solution time = 787.82 sec. (343952.92 ticks)

        Nodes                                         Cuts/
   Node  Left     Objective  IInf  Best Integer    Best Bound    ItCnt     Gap

      0     0    17106.3976 16423                  17106.3976   186184         
      0     0    17106.3976 16492                  Cuts: 5466   191522         
      0     0        cutoff                        17106.3976   191522         
Elapsed time = 4395.74 sec. (1967744.72 ticks, tree = 0.01 MB, solutions = 0)

Clique cuts applied:  12
Zero-half cuts applied:  1561

Root node processing (before b&c):
  Real time             = 4395.74 sec. (1967744.82 ticks)
Sequential b&c:
  Real time             =    0.00 sec. (0.00 ticks)
                          ------------
Total (root+branch&cut) = 4395.74 sec. (1967744.82 ticks)
Solution is infeasible.

---------------------
@@@ MIP_infeasible
Traceback (most recent call last):
  File "/scratch/scherif/DiverseSAT-journal_sup/DiverseSAT_Supplementary_Experiments/experiment-1/cplex/jobs/../solvers/CPLEX-QP-SE.py", line 118, in <module>
    print(f">>> Benchmark {os.path.basename(cnf_file)} k {k} OPT {int(prob.solution.get_objective_value())}"
  File "/users/scherif/.local/lib/python3.9/site-packages/cplex/_internal/_subinterfaces.py", line 7211, in get_objective_value
    return CPX_PROC.getobjval(self._env._e, self._cplex._lp)
  File "/users/scherif/.local/lib/python3.9/site-packages/cplex/_internal/_procedural.py", line 2055, in getobjval
    check_status(env, status)
  File "/users/scherif/.local/lib/python3.9/site-packages/cplex/_internal/_procedural.py", line 249, in __call__
    raise CplexSolverError(error_string, env, status)
cplex.exceptions.errors.CplexSolverError: CPLEX Error  1217: No solution exists.
